-data: g10.mc
-node_num: 800
-set_a_count: 391
-set_b_count: 409
-current_cut_value: 1685.0
-current_solution:
set_a: {0, 2, 4, 6, 8, 10, 11, 12, 13, 15, 16, 18, 19, 23, 29, 31, 34, 35, 40, 42, 46, 48, 50, 51, 52, 53, 54, 56, 58, 61, 62, 65, 66, 67, 68, 73, 76, 77, 80, 82, 83, 86, 87, 91, 96, 97, 98, 99, 100, 101, 103, 107, 108, 109, 111, 112, 116, 118, 120, 121, 127, 131, 133, 136, 139, 140, 143, 144, 148, 156, 158, 161, 163, 165, 166, 168, 170, 171, 172, 175, 177, 182, 183, 186, 190, 192, 195, 196, 197, 201, 202, 205, 206, 208, 210, 214, 219, 220, 223, 224, 230, 231, 232, 238, 240, 242, 245, 248, 251, 253, 254, 255, 257, 258, 259, 260, 261, 263, 264, 265, 268, 270, 272, 275, 278, 279, 281, 282, 283, 287, 288, 289, 292, 296, 298, 301, 302, 304, 307, 308, 309, 311, 312, 313, 317, 319, 321, 322, 323, 328, 329, 330, 333, 334, 337, 338, 341, 342, 344, 345, 346, 347, 348, 350, 351, 353, 354, 355, 360, 364, 370, 371, 373, 376, 378, 379, 380, 382, 383, 391, 394, 395, 397, 401, 402, 406, 407, 408, 410, 411, 412, 413, 414, 415, 416, 418, 419, 420, 422, 423, 424, 425, 430, 431, 433, 434, 436, 438, 439, 441, 442, 443, 445, 449, 450, 451, 452, 453, 456, 461, 463, 468, 471, 472, 477, 479, 480, 481, 482, 483, 484, 488, 489, 491, 493, 494, 495, 503, 507, 508, 509, 510, 512, 513, 517, 519, 520, 523, 525, 527, 528, 530, 532, 533, 534, 537, 538, 540, 543, 547, 550, 553, 557, 558, 561, 562, 564, 565, 568, 570, 571, 572, 574, 575, 577, 581, 582, 588, 589, 593, 595, 599, 601, 603, 604, 605, 606, 608, 609, 612, 614, 616, 618, 619, 620, 622, 623, 629, 630, 632, 633, 636, 638, 640, 641, 644, 646, 647, 648, 649, 650, 653, 654, 655, 659, 661, 662, 666, 667, 668, 669, 670, 673, 674, 675, 676, 677, 681, 682, 685, 691, 695, 697, 698, 699, 700, 703, 705, 709, 710, 711, 713, 715, 716, 719, 720, 721, 722, 725, 727, 729, 731, 732, 734, 740, 741, 742, 744, 745, 747, 748, 749, 750, 751, 754, 755, 756, 759, 765, 768, 769, 770, 771, 772, 774, 776, 778, 780, 782, 783, 786, 787, 790, 791, 792, 793, 795, 796, 797, 798, 799}
